c instance by G2
c solution = 111011100101010001100
c Known solution cost is 1036 
p cnf 21 30
w 58 92 32 56 95 96 38 30 86 17 52 30 63 20 19 43 40 32 21 29 87
-1 16 18 0
13 -11 -2 0
5 15 9 0
10 -6 17 0
-1 16 -21 0
-12 3 13 0
-14 -3 -13 0
11 -17 4 0
-18 -8 -4 0
-14 -11 -3 0
20 -17 -10 0
12 8 -7 0
17 1 -12 0
-20 4 -14 0
7 -1 -3 0
-6 13 19 0
-1 6 -18 0
14 -7 4 0
-15 20 21 0
-19 3 -13 0
-8 -3 21 0
6 18 -3 0
20 -4 -5 0
17 -2 -16 0
8 2 15 0
-9 11 -4 0
9 -7 2 0
-16 -12 -6 0
-6 20 -9 0
10 -21 20 0
